PROBLEM NAME: eil51_n7
KNAPSACK DATA TYPE: multiple strongly correlated
DIMENSION: 7
NUMBER OF ITEMS: 60
CAPACITY OF KNAPSACK: 16354
MIN SPEED: 0.1
MAX SPEED: 1
RENTING RATIO: 41.83
EDGE_WEIGHT_TYPE: CEIL_2D
NODE_COORD_SECTION	(INDEX, X, Y):
1	42	57
2	7	38
3	30	48
4	45	35
5	5	6
6	56	37
7	30	40
ITEMS SECTION	(INDEX, PROFIT, WEIGHT, ASSIGNED NODE NUMBER):
1	1179	979	3
2	1165	965	3
3	1128	928	3
4	1121	921	3
5	1115	915	3
6	1092	792	3
7	1086	786	3
8	1061	861	3
9	1048	848	3
10	1014	714	3
11	1014	814	7
12	1013	813	7
13	990	790	7
14	989	789	7
15	973	773	7
16	953	753	7
17	952	752	7
18	948	748	7
19	910	710	7
20	882	682	7
21	852	652	2
22	847	647	2
23	805	605	2
24	785	585	2
25	775	575	2
26	768	568	2
27	760	560	2
28	759	559	2
29	745	545	2
30	737	537	2
31	726	526	5
32	688	488	5
33	677	477	5
34	593	393	5
35	586	386	5
36	574	374	5
37	573	373	5
38	564	364	5
39	564	264	5
40	563	363	5
41	555	355	4
42	553	353	4
43	534	234	4
44	520	320	4
45	514	314	4
46	513	313	4
47	445	245	4
48	442	242	4
49	429	229	4
50	425	225	4
51	417	217	6
52	355	155	6
53	312	112	6
54	311	111	6
55	306	106	6
56	283	83	6
57	270	70	6
58	250	50	6
59	249	49	6
60	226	26	6
